50
120
99
99
99
97
95
94
92
91
90
90
90
90
88
83
79
78
78
76
76
70
68
67
66
63
62
62
61
60
58
58
58
58
56
56
55
54
53
51
50
48
48
47
42
37
37
37
36
32
31
30
